% Logging successfully configured
%%%mzn-stat: initTime=0.003548987
%%%mzn-stat: objective=488
%%%mzn-stat: nodes=123
%%%mzn-stat: restarts=0
%%%mzn-stat: peakDepth=122
%%%mzn-stat: solveTime=0.000801678
%%%mzn-stat: variables=296
%%%mzn-stat: propagators=194
%%%mzn-stat: failures=1
%%%mzn-stat: propagations=672
%%%mzn-stat: nogoods=1
%%%mzn-stat: numAtomicConstraintsPropagated=0
%%%mzn-stat: circuitNumber1PropagationsTotal=30
%%%mzn-stat: circuitNumber1CircuitConflicts=0
%%%mzn-stat: circuitNumber1AlldiffConflicts=1
%%%mzn-stat: circuitNumber1TotalFixedEdgesAtConflict=19
%%%mzn-stat: circuitNumber1NumberOfConflicts=1
%%%mzn-stat: circuitNumber1GacPrunings=65
%%%mzn-stat: circuitNumber1PropagationsThatGacPruned=14
%%%mzn-stat: circuitNumber1TotalPruningHallSetSize=134
%%%mzn-stat: circuitNumber1NumberOfPruningExplanations=65
%%%mzn-stat: circuitNumber1MaxPruningHallSetSize=13
%%%mzn-stat: circuitNumber1TotalSccSizeAtPruning=65
%%%mzn-stat: circuitNumber1NumberOfSccPruningCalls=14
%%%mzn-stat: circuitNumber1TotalVarsInvolvedInPruning=59
%%%mzn-stat: circuitNumber1MaxValuesPrunedFromSingleVar=4
%%%mzn-stat: circuitNumber1HallCircuitChecks=28
%%%mzn-stat: circuitNumber1HallCircuitPrunings=2
%%%mzn-stat: circuitNumber1CircuitPreventPrunings=8
%%%mzn-stat: AverageConflictSize=2
%%%mzn-stat: NumUnitNogoodsLearned=0
%%%mzn-stat: AverageLearnedNogoodLength=9
%%%mzn-stat: AverageBacktrackAmount=0
%%%mzn-stat: AverageLbd=4
%%%mzn-stat: 2AutonomousSearchNumBackupCalled=110
%%%mzn-stat: 2AutonomousSearchNumPredicatesRemoved=0
%%%mzn-stat: 2AutonomousSearchNumCalls=111
%%%mzn-stat: 2AutonomousSearchNumPredicatesAdded=41
%%%mzn-stat: 2AutonomousSearchAverageSizeOfHeap=0.36936936936936937
%%%mzn-stat: 2AutonomousSearchNumAssignedPredicatesEncountered=41
%%%mzn-stat-end
maxleg = 488;
succ = array1d(1..20,[2, 4, 6, 5, 8, 15, 3, 10, 7, 11, 14, 13, 19, 20, 18, 17, 12, 1, 9, 16]);
% time elapsed: 0.27 s
----------
%%%mzn-stat: initTime=0.003548987
%%%mzn-stat: objective=432
%%%mzn-stat: nodes=234
%%%mzn-stat: restarts=0
%%%mzn-stat: peakDepth=122
%%%mzn-stat: solveTime=0.001567058
%%%mzn-stat: variables=296
%%%mzn-stat: propagators=194
%%%mzn-stat: failures=2
%%%mzn-stat: propagations=1030
%%%mzn-stat: nogoods=2
%%%mzn-stat: numAtomicConstraintsPropagated=0
%%%mzn-stat: circuitNumber1PropagationsTotal=58
%%%mzn-stat: circuitNumber1CircuitConflicts=0
%%%mzn-stat: circuitNumber1AlldiffConflicts=1
%%%mzn-stat: circuitNumber1TotalFixedEdgesAtConflict=19
%%%mzn-stat: circuitNumber1NumberOfConflicts=1
%%%mzn-stat: circuitNumber1GacPrunings=125
%%%mzn-stat: circuitNumber1PropagationsThatGacPruned=28
%%%mzn-stat: circuitNumber1TotalPruningHallSetSize=299
%%%mzn-stat: circuitNumber1NumberOfPruningExplanations=125
%%%mzn-stat: circuitNumber1MaxPruningHallSetSize=14
%%%mzn-stat: circuitNumber1TotalSccSizeAtPruning=143
%%%mzn-stat: circuitNumber1NumberOfSccPruningCalls=28
%%%mzn-stat: circuitNumber1TotalVarsInvolvedInPruning=106
%%%mzn-stat: circuitNumber1MaxValuesPrunedFromSingleVar=5
%%%mzn-stat: circuitNumber1HallCircuitChecks=59
%%%mzn-stat: circuitNumber1HallCircuitPrunings=5
%%%mzn-stat: circuitNumber1CircuitPreventPrunings=22
%%%mzn-stat: AverageConflictSize=4
%%%mzn-stat: NumUnitNogoodsLearned=0
%%%mzn-stat: AverageLearnedNogoodLength=9.5
%%%mzn-stat: AverageBacktrackAmount=0
%%%mzn-stat: AverageLbd=4.5
%%%mzn-stat: 2AutonomousSearchNumBackupCalled=211
%%%mzn-stat: 2AutonomousSearchNumPredicatesRemoved=0
%%%mzn-stat: 2AutonomousSearchNumCalls=213
%%%mzn-stat: 2AutonomousSearchNumPredicatesAdded=102
%%%mzn-stat: 2AutonomousSearchAverageSizeOfHeap=0.6713615023474179
%%%mzn-stat: 2AutonomousSearchNumAssignedPredicatesEncountered=143
%%%mzn-stat-end
maxleg = 432;
succ = array1d(1..20,[2, 4, 6, 7, 1, 15, 9, 10, 12, 11, 13, 17, 19, 8, 18, 20, 16, 5, 3, 14]);
% time elapsed: 0.27 s
----------
%%%mzn-stat: initTime=0.003548987
%%%mzn-stat: objective=423
%%%mzn-stat: nodes=345
%%%mzn-stat: restarts=0
%%%mzn-stat: peakDepth=122
%%%mzn-stat: solveTime=0.002322967
%%%mzn-stat: variables=296
%%%mzn-stat: propagators=194
%%%mzn-stat: failures=3
%%%mzn-stat: propagations=1394
%%%mzn-stat: nogoods=3
%%%mzn-stat: numAtomicConstraintsPropagated=0
%%%mzn-stat: circuitNumber1PropagationsTotal=86
%%%mzn-stat: circuitNumber1CircuitConflicts=1
%%%mzn-stat: circuitNumber1AlldiffConflicts=1
%%%mzn-stat: circuitNumber1TotalFixedEdgesAtConflict=22
%%%mzn-stat: circuitNumber1NumberOfConflicts=2
%%%mzn-stat: circuitNumber1GacPrunings=186
%%%mzn-stat: circuitNumber1PropagationsThatGacPruned=41
%%%mzn-stat: circuitNumber1TotalPruningHallSetSize=560
%%%mzn-stat: circuitNumber1NumberOfPruningExplanations=186
%%%mzn-stat: circuitNumber1MaxPruningHallSetSize=19
%%%mzn-stat: circuitNumber1TotalSccSizeAtPruning=253
%%%mzn-stat: circuitNumber1NumberOfSccPruningCalls=41
%%%mzn-stat: circuitNumber1TotalVarsInvolvedInPruning=153
%%%mzn-stat: circuitNumber1MaxValuesPrunedFromSingleVar=5
%%%mzn-stat: circuitNumber1HallCircuitChecks=89
%%%mzn-stat: circuitNumber1HallCircuitPrunings=10
%%%mzn-stat: circuitNumber1CircuitPreventPrunings=33
%%%mzn-stat: AverageConflictSize=3.6666666666666665
%%%mzn-stat: NumUnitNogoodsLearned=0
%%%mzn-stat: AverageLearnedNogoodLength=10.666666666666666
%%%mzn-stat: AverageBacktrackAmount=0
%%%mzn-stat: AverageLbd=3.6666666666666665
%%%mzn-stat: 2AutonomousSearchNumBackupCalled=311
%%%mzn-stat: 2AutonomousSearchNumPredicatesRemoved=0
%%%mzn-stat: 2AutonomousSearchNumCalls=314
%%%mzn-stat: 2AutonomousSearchNumPredicatesAdded=142
%%%mzn-stat: 2AutonomousSearchAverageSizeOfHeap=0.8949044585987261
%%%mzn-stat: 2AutonomousSearchNumAssignedPredicatesEncountered=281
%%%mzn-stat-end
maxleg = 423;
succ = array1d(1..20,[5, 4, 6, 7, 2, 15, 9, 10, 12, 11, 13, 17, 19, 8, 18, 20, 16, 1, 3, 14]);
% time elapsed: 0.27 s
----------
%%%mzn-stat: initTime=0.003548987
%%%mzn-stat: objective=377
%%%mzn-stat: nodes=439
%%%mzn-stat: restarts=0
%%%mzn-stat: peakDepth=122
%%%mzn-stat: solveTime=0.003379303
%%%mzn-stat: variables=296
%%%mzn-stat: propagators=194
%%%mzn-stat: failures=5
%%%mzn-stat: propagations=1820
%%%mzn-stat: nogoods=5
%%%mzn-stat: numAtomicConstraintsPropagated=0
%%%mzn-stat: circuitNumber1PropagationsTotal=124
%%%mzn-stat: circuitNumber1CircuitConflicts=2
%%%mzn-stat: circuitNumber1AlldiffConflicts=1
%%%mzn-stat: circuitNumber1TotalFixedEdgesAtConflict=39
%%%mzn-stat: circuitNumber1NumberOfConflicts=3
%%%mzn-stat: circuitNumber1GacPrunings=253
%%%mzn-stat: circuitNumber1PropagationsThatGacPruned=62
%%%mzn-stat: circuitNumber1TotalPruningHallSetSize=779
%%%mzn-stat: circuitNumber1NumberOfPruningExplanations=253
%%%mzn-stat: circuitNumber1MaxPruningHallSetSize=19
%%%mzn-stat: circuitNumber1TotalSccSizeAtPruning=359
%%%mzn-stat: circuitNumber1NumberOfSccPruningCalls=62
%%%mzn-stat: circuitNumber1TotalVarsInvolvedInPruning=207
%%%mzn-stat: circuitNumber1MaxValuesPrunedFromSingleVar=5
%%%mzn-stat: circuitNumber1HallCircuitChecks=129
%%%mzn-stat: circuitNumber1HallCircuitPrunings=15
%%%mzn-stat: circuitNumber1CircuitPreventPrunings=52
%%%mzn-stat: AverageConflictSize=4
%%%mzn-stat: NumUnitNogoodsLearned=0
%%%mzn-stat: AverageLearnedNogoodLength=12.6
%%%mzn-stat: AverageBacktrackAmount=0
%%%mzn-stat: AverageLbd=4.8
%%%mzn-stat: 2AutonomousSearchNumBackupCalled=393
%%%mzn-stat: 2AutonomousSearchNumPredicatesRemoved=0
%%%mzn-stat: 2AutonomousSearchNumCalls=397
%%%mzn-stat: 2AutonomousSearchNumPredicatesAdded=305
%%%mzn-stat: 2AutonomousSearchAverageSizeOfHeap=1.4307304785894206
%%%mzn-stat: 2AutonomousSearchNumAssignedPredicatesEncountered=568
%%%mzn-stat-end
maxleg = 377;
succ = array1d(1..20,[5, 4, 6, 7, 2, 15, 9, 10, 17, 14, 8, 13, 19, 20, 18, 12, 11, 1, 3, 16]);
% time elapsed: 0.27 s
----------
%%%mzn-stat: initTime=0.003548987
%%%mzn-stat: objective=366
%%%mzn-stat: nodes=525
%%%mzn-stat: restarts=0
%%%mzn-stat: peakDepth=122
%%%mzn-stat: solveTime=0.004278716
%%%mzn-stat: variables=296
%%%mzn-stat: propagators=194
%%%mzn-stat: failures=6
%%%mzn-stat: propagations=2222
%%%mzn-stat: nogoods=6
%%%mzn-stat: numAtomicConstraintsPropagated=0
%%%mzn-stat: circuitNumber1PropagationsTotal=154
%%%mzn-stat: circuitNumber1CircuitConflicts=2
%%%mzn-stat: circuitNumber1AlldiffConflicts=1
%%%mzn-stat: circuitNumber1TotalFixedEdgesAtConflict=39
%%%mzn-stat: circuitNumber1NumberOfConflicts=3
%%%mzn-stat: circuitNumber1GacPrunings=305
%%%mzn-stat: circuitNumber1PropagationsThatGacPruned=80
%%%mzn-stat: circuitNumber1TotalPruningHallSetSize=981
%%%mzn-stat: circuitNumber1NumberOfPruningExplanations=305
%%%mzn-stat: circuitNumber1MaxPruningHallSetSize=19
%%%mzn-stat: circuitNumber1TotalSccSizeAtPruning=447
%%%mzn-stat: circuitNumber1NumberOfSccPruningCalls=80
%%%mzn-stat: circuitNumber1TotalVarsInvolvedInPruning=250
%%%mzn-stat: circuitNumber1MaxValuesPrunedFromSingleVar=5
%%%mzn-stat: circuitNumber1HallCircuitChecks=164
%%%mzn-stat: circuitNumber1HallCircuitPrunings=20
%%%mzn-stat: circuitNumber1CircuitPreventPrunings=66
%%%mzn-stat: AverageConflictSize=6
%%%mzn-stat: NumUnitNogoodsLearned=0
%%%mzn-stat: AverageLearnedNogoodLength=14.5
%%%mzn-stat: AverageBacktrackAmount=0
%%%mzn-stat: AverageLbd=5.5
%%%mzn-stat: 2AutonomousSearchNumBackupCalled=468
%%%mzn-stat: 2AutonomousSearchNumPredicatesRemoved=0
%%%mzn-stat: 2AutonomousSearchNumCalls=473
%%%mzn-stat: 2AutonomousSearchNumPredicatesAdded=415
%%%mzn-stat: 2AutonomousSearchAverageSizeOfHeap=1.8477801268498943
%%%mzn-stat: 2AutonomousSearchNumAssignedPredicatesEncountered=874
%%%mzn-stat-end
maxleg = 366;
succ = array1d(1..20,[5, 4, 6, 7, 2, 15, 9, 10, 19, 14, 8, 3, 11, 20, 18, 17, 12, 1, 13, 16]);
% time elapsed: 0.27 s
----------
%%%mzn-stat: initTime=0.003548987
%%%mzn-stat: objective=329
%%%mzn-stat: nodes=601
%%%mzn-stat: restarts=0
%%%mzn-stat: peakDepth=122
%%%mzn-stat: solveTime=0.005379811
%%%mzn-stat: variables=296
%%%mzn-stat: propagators=194
%%%mzn-stat: failures=8
%%%mzn-stat: propagations=2669
%%%mzn-stat: nogoods=8
%%%mzn-stat: numAtomicConstraintsPropagated=0
%%%mzn-stat: circuitNumber1PropagationsTotal=187
%%%mzn-stat: circuitNumber1CircuitConflicts=3
%%%mzn-stat: circuitNumber1AlldiffConflicts=1
%%%mzn-stat: circuitNumber1TotalFixedEdgesAtConflict=50
%%%mzn-stat: circuitNumber1NumberOfConflicts=4
%%%mzn-stat: circuitNumber1GacPrunings=374
%%%mzn-stat: circuitNumber1PropagationsThatGacPruned=97
%%%mzn-stat: circuitNumber1TotalPruningHallSetSize=1253
%%%mzn-stat: circuitNumber1NumberOfPruningExplanations=374
%%%mzn-stat: circuitNumber1MaxPruningHallSetSize=19
%%%mzn-stat: circuitNumber1TotalSccSizeAtPruning=608
%%%mzn-stat: circuitNumber1NumberOfSccPruningCalls=97
%%%mzn-stat: circuitNumber1TotalVarsInvolvedInPruning=304
%%%mzn-stat: circuitNumber1MaxValuesPrunedFromSingleVar=5
%%%mzn-stat: circuitNumber1HallCircuitChecks=199
%%%mzn-stat: circuitNumber1HallCircuitPrunings=26
%%%mzn-stat: circuitNumber1CircuitPreventPrunings=81
%%%mzn-stat: AverageConflictSize=7.875
%%%mzn-stat: NumUnitNogoodsLearned=0
%%%mzn-stat: AverageLearnedNogoodLength=16.5
%%%mzn-stat: AverageBacktrackAmount=0
%%%mzn-stat: AverageLbd=5.625
%%%mzn-stat: 2AutonomousSearchNumBackupCalled=535
%%%mzn-stat: 2AutonomousSearchNumPredicatesRemoved=0
%%%mzn-stat: 2AutonomousSearchNumCalls=541
%%%mzn-stat: 2AutonomousSearchNumPredicatesAdded=540
%%%mzn-stat: 2AutonomousSearchAverageSizeOfHeap=2.243992606284658
%%%mzn-stat: 2AutonomousSearchNumAssignedPredicatesEncountered=1214
%%%mzn-stat-end
maxleg = 329;
succ = array1d(1..20,[5, 4, 6, 7, 2, 15, 12, 10, 19, 14, 8, 13, 11, 20, 18, 17, 9, 1, 3, 16]);
% time elapsed: 0.27 s
----------
%%%mzn-stat: initTime=0.003548987
%%%mzn-stat: objective=324
%%%mzn-stat: nodes=692
%%%mzn-stat: restarts=0
%%%mzn-stat: peakDepth=122
%%%mzn-stat: solveTime=0.008225323
%%%mzn-stat: variables=296
%%%mzn-stat: propagators=194
%%%mzn-stat: failures=18
%%%mzn-stat: propagations=3532
%%%mzn-stat: nogoods=18
%%%mzn-stat: numAtomicConstraintsPropagated=0
%%%mzn-stat: circuitNumber1PropagationsTotal=269
%%%mzn-stat: circuitNumber1CircuitConflicts=6
%%%mzn-stat: circuitNumber1AlldiffConflicts=2
%%%mzn-stat: circuitNumber1TotalFixedEdgesAtConflict=111
%%%mzn-stat: circuitNumber1NumberOfConflicts=8
%%%mzn-stat: circuitNumber1GacPrunings=536
%%%mzn-stat: circuitNumber1PropagationsThatGacPruned=143
%%%mzn-stat: circuitNumber1TotalPruningHallSetSize=1794
%%%mzn-stat: circuitNumber1NumberOfPruningExplanations=536
%%%mzn-stat: circuitNumber1MaxPruningHallSetSize=19
%%%mzn-stat: circuitNumber1TotalSccSizeAtPruning=928
%%%mzn-stat: circuitNumber1NumberOfSccPruningCalls=143
%%%mzn-stat: circuitNumber1TotalVarsInvolvedInPruning=433
%%%mzn-stat: circuitNumber1MaxValuesPrunedFromSingleVar=5
%%%mzn-stat: circuitNumber1HallCircuitChecks=304
%%%mzn-stat: circuitNumber1HallCircuitPrunings=45
%%%mzn-stat: circuitNumber1CircuitPreventPrunings=118
%%%mzn-stat: AverageConflictSize=9.944444444444445
%%%mzn-stat: NumUnitNogoodsLearned=0
%%%mzn-stat: AverageLearnedNogoodLength=20.055555555555557
%%%mzn-stat: AverageBacktrackAmount=0
%%%mzn-stat: AverageLbd=5.388888888888889
%%%mzn-stat: 2AutonomousSearchNumBackupCalled=606
%%%mzn-stat: 2AutonomousSearchNumPredicatesRemoved=0
%%%mzn-stat: 2AutonomousSearchNumCalls=613
%%%mzn-stat: 2AutonomousSearchNumPredicatesAdded=821
%%%mzn-stat: 2AutonomousSearchAverageSizeOfHeap=2.693311582381729
%%%mzn-stat: 2AutonomousSearchNumAssignedPredicatesEncountered=1651
%%%mzn-stat-end
maxleg = 324;
succ = array1d(1..20,[5, 4, 6, 8, 2, 15, 9, 10, 19, 14, 7, 13, 11, 20, 18, 17, 12, 1, 3, 16]);
% time elapsed: 0.27 s
----------
%%%mzn-stat: initTime=0.003548987
%%%mzn-stat: objective=323
%%%mzn-stat: nodes=766
%%%mzn-stat: restarts=0
%%%mzn-stat: peakDepth=122
%%%mzn-stat: solveTime=0.008823902
%%%mzn-stat: variables=296
%%%mzn-stat: propagators=194
%%%mzn-stat: failures=18
%%%mzn-stat: propagations=3881
%%%mzn-stat: nogoods=18
%%%mzn-stat: numAtomicConstraintsPropagated=0
%%%mzn-stat: circuitNumber1PropagationsTotal=287
%%%mzn-stat: circuitNumber1CircuitConflicts=6
%%%mzn-stat: circuitNumber1AlldiffConflicts=2
%%%mzn-stat: circuitNumber1TotalFixedEdgesAtConflict=111
%%%mzn-stat: circuitNumber1NumberOfConflicts=8
%%%mzn-stat: circuitNumber1GacPrunings=576
%%%mzn-stat: circuitNumber1PropagationsThatGacPruned=152
%%%mzn-stat: circuitNumber1TotalPruningHallSetSize=1965
%%%mzn-stat: circuitNumber1NumberOfPruningExplanations=576
%%%mzn-stat: circuitNumber1MaxPruningHallSetSize=19
%%%mzn-stat: circuitNumber1TotalSccSizeAtPruning=1020
%%%mzn-stat: circuitNumber1NumberOfSccPruningCalls=152
%%%mzn-stat: circuitNumber1TotalVarsInvolvedInPruning=463
%%%mzn-stat: circuitNumber1MaxValuesPrunedFromSingleVar=5
%%%mzn-stat: circuitNumber1HallCircuitChecks=326
%%%mzn-stat: circuitNumber1HallCircuitPrunings=47
%%%mzn-stat: circuitNumber1CircuitPreventPrunings=124
%%%mzn-stat: AverageConflictSize=9.944444444444445
%%%mzn-stat: NumUnitNogoodsLearned=0
%%%mzn-stat: AverageLearnedNogoodLength=20.055555555555557
%%%mzn-stat: AverageBacktrackAmount=0
%%%mzn-stat: AverageLbd=5.388888888888889
%%%mzn-stat: 2AutonomousSearchNumBackupCalled=674
%%%mzn-stat: 2AutonomousSearchNumPredicatesRemoved=0
%%%mzn-stat: 2AutonomousSearchNumCalls=682
%%%mzn-stat: 2AutonomousSearchNumPredicatesAdded=821
%%%mzn-stat: 2AutonomousSearchAverageSizeOfHeap=3.06158357771261
%%%mzn-stat: 2AutonomousSearchNumAssignedPredicatesEncountered=2088
%%%mzn-stat-end
maxleg = 323;
succ = array1d(1..20,[5, 4, 6, 8, 2, 18, 9, 10, 19, 14, 7, 13, 11, 20, 1, 17, 12, 15, 3, 16]);
% time elapsed: 0.27 s
----------
==========
% time elapsed: 0.29 s
%%%mzn-stat: initTime=0.003548987
%%%mzn-stat: objective=323
%%%mzn-stat: nodes=1014
%%%mzn-stat: restarts=0
%%%mzn-stat: peakDepth=122
%%%mzn-stat: solveTime=0.05632044
%%%mzn-stat: variables=296
%%%mzn-stat: propagators=194
%%%mzn-stat: failures=265
%%%mzn-stat: propagations=12992
%%%mzn-stat: nogoods=265
%%%mzn-stat: numAtomicConstraintsPropagated=0
%%%mzn-stat: circuitNumber1PropagationsTotal=1496
%%%mzn-stat: circuitNumber1CircuitConflicts=148
%%%mzn-stat: circuitNumber1AlldiffConflicts=10
%%%mzn-stat: circuitNumber1TotalFixedEdgesAtConflict=2308
%%%mzn-stat: circuitNumber1NumberOfConflicts=158
%%%mzn-stat: circuitNumber1GacPrunings=2958
%%%mzn-stat: circuitNumber1PropagationsThatGacPruned=836
%%%mzn-stat: circuitNumber1TotalPruningHallSetSize=9727
%%%mzn-stat: circuitNumber1NumberOfPruningExplanations=2958
%%%mzn-stat: circuitNumber1MaxPruningHallSetSize=19
%%%mzn-stat: circuitNumber1TotalSccSizeAtPruning=5782
%%%mzn-stat: circuitNumber1NumberOfSccPruningCalls=836
%%%mzn-stat: circuitNumber1TotalVarsInvolvedInPruning=2361
%%%mzn-stat: circuitNumber1MaxValuesPrunedFromSingleVar=5
%%%mzn-stat: circuitNumber1HallCircuitChecks=1662
%%%mzn-stat: circuitNumber1HallCircuitPrunings=252
%%%mzn-stat: circuitNumber1CircuitPreventPrunings=809
%%%mzn-stat: AverageConflictSize=7.622641509433962
%%%mzn-stat: NumUnitNogoodsLearned=1
%%%mzn-stat: AverageLearnedNogoodLength=22.977358490566036
%%%mzn-stat: AverageBacktrackAmount=0
%%%mzn-stat: AverageLbd=4.2075471698113205
%%%mzn-stat: 2AutonomousSearchNumBackupCalled=674
%%%mzn-stat: 2AutonomousSearchNumPredicatesRemoved=0
%%%mzn-stat: 2AutonomousSearchNumCalls=682
%%%mzn-stat: 2AutonomousSearchNumPredicatesAdded=1556
%%%mzn-stat: 2AutonomousSearchAverageSizeOfHeap=3.06158357771261
%%%mzn-stat: 2AutonomousSearchNumAssignedPredicatesEncountered=2088
%%%mzn-stat-end
